Minimize
	value: tt

Subject to
tt + 500 s_1_1 > 0
tt - t_1_1 - 503.000000 s_1_1 + 3.000000 s_1_6 > -481.769778
tt + 500 s_2_1 > 0
tt - t_2_1 - 503.000000 s_2_1 + 3.000000 s_2_6 > -486.074000
tt + 500 s_1_2 > 0
tt - t_1_2 - 503.000000 s_1_2 + 3.000000 s_1_7 > -480.812700
tt + 500 s_2_2 > 0
tt - t_2_2 - 503.000000 s_2_2 + 3.000000 s_2_7 > -481.754000
tt + 500 s_1_3 > 0
tt - t_1_3 - 503.000000 s_1_3 + 3.000000 s_1_7 > -465.610178
tt + 500 s_2_3 > 0
tt - t_2_3 - 503.000000 s_2_3 + 3.000000 s_2_7 > -473.831000
tt + 500 s_1_4 > 0
tt - t_1_4 - 512.000000 s_1_4 + 12.000000 s_1_3 > -482.724011
tt + 500 s_2_4 > 0
tt - t_2_4 - 512.000000 s_2_4 + 12.000000 s_2_3 > -479.776000
tt + 500 s_1_5 > 0
tt - t_1_5 - 512.000000 s_1_5 + 12.000000 s_1_6 > -482.603233
tt + 500 s_2_5 > 0
tt - t_2_5 - 512.000000 s_2_5 + 12.000000 s_2_6 > -485.285000
tt + 500 s_1_6 > 0
tt - t_1_6 - 500.000000 s_1_6 > -458.754100
tt + 500 s_2_6 > 0
tt - t_2_6 - 500.000000 s_2_6 > -485.297000
tt + 500 s_1_7 > 0
tt - t_1_7 - 500.000000 s_1_7 > -458.556200
tt + 500 s_2_7 > 0
tt - t_2_7 - 500.000000 s_2_7 > -484.537000
tt + 500 s_1_8 > 0
tt - t_1_8 - 575.000000 s_1_8 + 75.000000 s_1_2 > -499.680000
tt + 500 s_2_8 > 0
tt - t_2_8 - 575.000000 s_2_8 + 75.000000 s_2_2 > -494.574000
s_1_1 + s_2_1  = 1
s_1_2 + s_2_2  = 1
s_1_3 + s_2_3  = 1
s_1_4 + s_2_4  = 1
s_1_5 + s_2_5  = 1
s_1_6 + s_2_6  = 1
s_1_7 + s_2_7  = 1
s_1_8 + s_2_8  = 1
t_1_1 - t_1_2 + 500.000000 u_1_1_2 - 3.000000 s_1_2 + 3.000000 s_1_7 > 19.187300
t_1_2 - t_1_1 - 500.000000 u_1_1_2 > -481.769778
t_2_1 - t_2_2 + 500.000000 u_2_1_2 - 3.000000 s_2_2 + 3.000000 s_2_7 > 18.246000
t_2_2 - t_2_1 - 500.000000 u_2_1_2 > -486.074000
t_1_1 - t_1_3 + 500.000000 u_1_1_3 - 3.000000 s_1_3 + 3.000000 s_1_7 > 34.389822
t_1_3 - t_1_1 - 500.000000 u_1_1_3 > -481.769778
t_2_1 - t_2_3 + 500.000000 u_2_1_3 - 3.000000 s_2_3 + 3.000000 s_2_7 > 26.169000
t_2_3 - t_2_1 - 500.000000 u_2_1_3 > -486.074000
t_1_1 - t_1_4 + 500.000000 u_1_1_4 - 6.000000 s_1_4 + 6.000000 s_1_3 > 17.275989
t_1_4 - t_1_1 - 500.000000 u_1_1_4 > -481.769778
t_2_1 - t_2_4 + 500.000000 u_2_1_4 - 6.000000 s_2_4 + 6.000000 s_2_3 > 20.224000
t_2_4 - t_2_1 - 500.000000 u_2_1_4 > -486.074000
t_1_1 - t_1_5 + 500.000000 u_1_1_5 - 6.000000 s_1_5 + 6.000000 s_1_6 > 17.396767
t_1_5 - t_1_1 - 500.000000 u_1_1_5 > -481.769778
t_2_1 - t_2_5 + 500.000000 u_2_1_5 - 6.000000 s_2_5 + 6.000000 s_2_6 > 14.715000
t_2_5 - t_2_1 - 500.000000 u_2_1_5 > -486.074000
t_1_1 - t_1_6 - 500.000000 s_1_6 > -455.754100
t_1_1 - t_2_6 - 500.000000 s_2_6 > -482.297000
t_2_1 - t_1_6 - 500.000000 s_1_6 > -455.754100
t_2_1 - t_2_6 - 500.000000 s_2_6 > -482.297000
t_1_1 - t_1_7 + 500.000000 u_1_1_7 > 41.443800
t_1_7 - t_1_1 - 500.000000 u_1_1_7 > -481.769778
t_2_1 - t_2_7 + 500.000000 u_2_1_7 > 15.463000
t_2_7 - t_2_1 - 500.000000 u_2_1_7 > -486.074000
t_1_8 - t_1_1 - 500.000000 s_1_1 > -478.769778
t_1_8 - t_2_1 - 500.000000 s_2_1 > -483.074000
t_2_8 - t_1_1 - 500.000000 s_1_1 > -478.769778
t_2_8 - t_2_1 - 500.000000 s_2_1 > -483.074000
t_1_2 - t_1_1 + 500.000000 u_1_2_1 - 3.000000 s_1_1 + 3.000000 s_1_6 > 18.230222
t_1_1 - t_1_2 - 500.000000 u_1_2_1 > -480.812700
t_2_2 - t_2_1 + 500.000000 u_2_2_1 - 3.000000 s_2_1 + 3.000000 s_2_6 > 13.926000
t_2_1 - t_2_2 - 500.000000 u_2_2_1 > -481.754000
t_1_2 - t_1_3 + 500.000000 u_1_2_3 - 3.000000 s_1_3 + 3.000000 s_1_7 > 34.389822
t_1_3 - t_1_2 - 500.000000 u_1_2_3 > -480.812700
t_2_2 - t_2_3 + 500.000000 u_2_2_3 - 3.000000 s_2_3 + 3.000000 s_2_7 > 26.169000
t_2_3 - t_2_2 - 500.000000 u_2_2_3 > -481.754000
t_1_2 - t_1_4 + 500.000000 u_1_2_4 - 6.000000 s_1_4 + 6.000000 s_1_3 > 17.275989
t_1_4 - t_1_2 - 500.000000 u_1_2_4 > -480.812700
t_2_2 - t_2_4 + 500.000000 u_2_2_4 - 6.000000 s_2_4 + 6.000000 s_2_3 > 20.224000
t_2_4 - t_2_2 - 500.000000 u_2_2_4 > -481.754000
t_1_2 - t_1_5 + 500.000000 u_1_2_5 - 6.000000 s_1_5 + 6.000000 s_1_6 > 17.396767
t_1_5 - t_1_2 - 500.000000 u_1_2_5 > -480.812700
t_2_2 - t_2_5 + 500.000000 u_2_2_5 - 6.000000 s_2_5 + 6.000000 s_2_6 > 14.715000
t_2_5 - t_2_2 - 500.000000 u_2_2_5 > -481.754000
t_1_2 - t_1_6 + 500.000000 u_1_2_6 > 41.245900
t_1_6 - t_1_2 - 500.000000 u_1_2_6 > -480.812700
t_2_2 - t_2_6 + 500.000000 u_2_2_6 > 14.703000
t_2_6 - t_2_2 - 500.000000 u_2_2_6 > -481.754000
t_1_2 - t_1_7 - 500.000000 s_1_7 > -455.556200
t_1_2 - t_2_7 - 500.000000 s_2_7 > -481.537000
t_2_2 - t_1_7 - 500.000000 s_1_7 > -455.556200
t_2_2 - t_2_7 - 500.000000 s_2_7 > -481.537000
t_1_8 - t_1_2 - 500.000000 s_1_2 > -477.812700
t_1_8 - t_2_2 - 500.000000 s_2_2 > -478.754000
t_2_8 - t_1_2 - 500.000000 s_1_2 > -477.812700
t_2_8 - t_2_2 - 500.000000 s_2_2 > -478.754000
t_1_3 - t_1_1 + 500.000000 u_1_3_1 - 3.000000 s_1_1 + 3.000000 s_1_6 > 18.230222
t_1_1 - t_1_3 - 500.000000 u_1_3_1 > -465.610178
t_2_3 - t_2_1 + 500.000000 u_2_3_1 - 3.000000 s_2_1 + 3.000000 s_2_6 > 13.926000
t_2_1 - t_2_3 - 500.000000 u_2_3_1 > -473.831000
t_1_3 - t_1_2 + 500.000000 u_1_3_2 - 3.000000 s_1_2 + 3.000000 s_1_7 > 19.187300
t_1_2 - t_1_3 - 500.000000 u_1_3_2 > -465.610178
t_2_3 - t_2_2 + 500.000000 u_2_3_2 - 3.000000 s_2_2 + 3.000000 s_2_7 > 18.246000
t_2_2 - t_2_3 - 500.000000 u_2_3_2 > -473.831000
t_1_4 - t_1_3 - 500.000000 s_1_3 > -462.610178
t_1_4 - t_2_3 - 500.000000 s_2_3 > -470.831000
t_2_4 - t_1_3 - 500.000000 s_1_3 > -462.610178
t_2_4 - t_2_3 - 500.000000 s_2_3 > -470.831000
t_1_3 - t_1_5 + 500.000000 u_1_3_5 - 6.000000 s_1_5 + 6.000000 s_1_6 > 17.396767
t_1_5 - t_1_3 - 500.000000 u_1_3_5 > -465.610178
t_2_3 - t_2_5 + 500.000000 u_2_3_5 - 6.000000 s_2_5 + 6.000000 s_2_6 > 14.715000
t_2_5 - t_2_3 - 500.000000 u_2_3_5 > -473.831000
t_1_3 - t_1_6 + 500.000000 u_1_3_6 > 41.245900
t_1_6 - t_1_3 - 500.000000 u_1_3_6 > -465.610178
t_2_3 - t_2_6 + 500.000000 u_2_3_6 > 14.703000
t_2_6 - t_2_3 - 500.000000 u_2_3_6 > -473.831000
t_1_3 - t_1_7 - 500.000000 s_1_7 > -455.556200
t_1_3 - t_2_7 - 500.000000 s_2_7 > -481.537000
t_2_3 - t_1_7 - 500.000000 s_1_7 > -455.556200
t_2_3 - t_2_7 - 500.000000 s_2_7 > -481.537000
t_1_8 - t_1_3 - 500.000000 s_1_3 > -462.610178
t_1_8 - t_2_3 - 500.000000 s_2_3 > -470.831000
t_2_8 - t_1_3 - 500.000000 s_1_3 > -462.610178
t_2_8 - t_2_3 - 500.000000 s_2_3 > -470.831000
t_1_4 - t_1_1 + 500.000000 u_1_4_1 - 3.000000 s_1_1 + 3.000000 s_1_6 > 18.230222
t_1_1 - t_1_4 - 500.000000 u_1_4_1 > -482.724011
t_2_4 - t_2_1 + 500.000000 u_2_4_1 - 3.000000 s_2_1 + 3.000000 s_2_6 > 13.926000
t_2_1 - t_2_4 - 500.000000 u_2_4_1 > -479.776000
t_1_4 - t_1_2 + 500.000000 u_1_4_2 - 3.000000 s_1_2 + 3.000000 s_1_7 > 19.187300
t_1_2 - t_1_4 - 500.000000 u_1_4_2 > -482.724011
t_2_4 - t_2_2 + 500.000000 u_2_4_2 - 3.000000 s_2_2 + 3.000000 s_2_7 > 18.246000
t_2_2 - t_2_4 - 500.000000 u_2_4_2 > -479.776000
t_1_4 - t_1_3 - 500.000000 s_1_3 > -462.610178
t_1_4 - t_2_3 - 500.000000 s_2_3 > -470.831000
t_2_4 - t_1_3 - 500.000000 s_1_3 > -462.610178
t_2_4 - t_2_3 - 500.000000 s_2_3 > -470.831000
t_1_4 - t_1_5 + 500.000000 u_1_4_5 - 6.000000 s_1_5 + 6.000000 s_1_6 > 17.396767
t_1_5 - t_1_4 - 500.000000 u_1_4_5 > -482.724011
t_2_4 - t_2_5 + 500.000000 u_2_4_5 - 6.000000 s_2_5 + 6.000000 s_2_6 > 14.715000
t_2_5 - t_2_4 - 500.000000 u_2_4_5 > -479.776000
t_1_4 - t_1_6 + 500.000000 u_1_4_6 > 41.245900
t_1_6 - t_1_4 - 500.000000 u_1_4_6 > -482.724011
t_2_4 - t_2_6 + 500.000000 u_2_4_6 > 14.703000
t_2_6 - t_2_4 - 500.000000 u_2_4_6 > -479.776000
t_1_4 - t_1_7 - 500.000000 s_1_7 > -455.556200
t_1_4 - t_2_7 - 500.000000 s_2_7 > -481.537000
t_2_4 - t_1_7 - 500.000000 s_1_7 > -455.556200
t_2_4 - t_2_7 - 500.000000 s_2_7 > -481.537000
t_1_8 - t_1_4 - 500.000000 s_1_4 > -476.724011
t_1_8 - t_2_4 - 500.000000 s_2_4 > -473.776000
t_2_8 - t_1_4 - 500.000000 s_1_4 > -476.724011
t_2_8 - t_2_4 - 500.000000 s_2_4 > -473.776000
t_1_5 - t_1_1 + 500.000000 u_1_5_1 - 3.000000 s_1_1 + 3.000000 s_1_6 > 18.230222
t_1_1 - t_1_5 - 500.000000 u_1_5_1 > -482.603233
t_2_5 - t_2_1 + 500.000000 u_2_5_1 - 3.000000 s_2_1 + 3.000000 s_2_6 > 13.926000
t_2_1 - t_2_5 - 500.000000 u_2_5_1 > -485.285000
t_1_5 - t_1_2 + 500.000000 u_1_5_2 - 3.000000 s_1_2 + 3.000000 s_1_7 > 19.187300
t_1_2 - t_1_5 - 500.000000 u_1_5_2 > -482.603233
t_2_5 - t_2_2 + 500.000000 u_2_5_2 - 3.000000 s_2_2 + 3.000000 s_2_7 > 18.246000
t_2_2 - t_2_5 - 500.000000 u_2_5_2 > -485.285000
t_1_5 - t_1_3 + 500.000000 u_1_5_3 - 3.000000 s_1_3 + 3.000000 s_1_7 > 34.389822
t_1_3 - t_1_5 - 500.000000 u_1_5_3 > -482.603233
t_2_5 - t_2_3 + 500.000000 u_2_5_3 - 3.000000 s_2_3 + 3.000000 s_2_7 > 26.169000
t_2_3 - t_2_5 - 500.000000 u_2_5_3 > -485.285000
t_1_5 - t_1_4 + 500.000000 u_1_5_4 - 6.000000 s_1_4 + 6.000000 s_1_3 > 17.275989
t_1_4 - t_1_5 - 500.000000 u_1_5_4 > -482.603233
t_2_5 - t_2_4 + 500.000000 u_2_5_4 - 6.000000 s_2_4 + 6.000000 s_2_3 > 20.224000
t_2_4 - t_2_5 - 500.000000 u_2_5_4 > -485.285000
t_1_5 - t_1_6 - 500.000000 s_1_6 > -455.754100
t_1_5 - t_2_6 - 500.000000 s_2_6 > -482.297000
t_2_5 - t_1_6 - 500.000000 s_1_6 > -455.754100
t_2_5 - t_2_6 - 500.000000 s_2_6 > -482.297000
t_1_5 - t_1_7 - 500.000000 s_1_7 > -455.556200
t_1_5 - t_2_7 - 500.000000 s_2_7 > -481.537000
t_2_5 - t_1_7 - 500.000000 s_1_7 > -455.556200
t_2_5 - t_2_7 - 500.000000 s_2_7 > -481.537000
t_1_8 - t_1_5 - 500.000000 s_1_5 > -476.603233
t_1_8 - t_2_5 - 500.000000 s_2_5 > -479.285000
t_2_8 - t_1_5 - 500.000000 s_1_5 > -476.603233
t_2_8 - t_2_5 - 500.000000 s_2_5 > -479.285000
t_1_1 - t_1_6 - 500.000000 s_1_6 > -455.754100
t_1_1 - t_2_6 - 500.000000 s_2_6 > -482.297000
t_2_1 - t_1_6 - 500.000000 s_1_6 > -455.754100
t_2_1 - t_2_6 - 500.000000 s_2_6 > -482.297000
t_1_6 - t_1_2 + 500.000000 u_1_6_2 - 3.000000 s_1_2 + 3.000000 s_1_7 > 19.187300
t_1_2 - t_1_6 - 500.000000 u_1_6_2 > -458.754100
t_2_6 - t_2_2 + 500.000000 u_2_6_2 - 3.000000 s_2_2 + 3.000000 s_2_7 > 18.246000
t_2_2 - t_2_6 - 500.000000 u_2_6_2 > -485.297000
t_1_6 - t_1_3 + 500.000000 u_1_6_3 - 3.000000 s_1_3 + 3.000000 s_1_7 > 34.389822
t_1_3 - t_1_6 - 500.000000 u_1_6_3 > -458.754100
t_2_6 - t_2_3 + 500.000000 u_2_6_3 - 3.000000 s_2_3 + 3.000000 s_2_7 > 26.169000
t_2_3 - t_2_6 - 500.000000 u_2_6_3 > -485.297000
t_1_6 - t_1_4 + 500.000000 u_1_6_4 - 6.000000 s_1_4 + 6.000000 s_1_3 > 17.275989
t_1_4 - t_1_6 - 500.000000 u_1_6_4 > -458.754100
t_2_6 - t_2_4 + 500.000000 u_2_6_4 - 6.000000 s_2_4 + 6.000000 s_2_3 > 20.224000
t_2_4 - t_2_6 - 500.000000 u_2_6_4 > -485.297000
t_1_5 - t_1_6 - 500.000000 s_1_6 > -455.754100
t_1_5 - t_2_6 - 500.000000 s_2_6 > -482.297000
t_2_5 - t_1_6 - 500.000000 s_1_6 > -455.754100
t_2_5 - t_2_6 - 500.000000 s_2_6 > -482.297000
t_1_6 - t_1_7 + 500.000000 u_1_6_7 > 41.443800
t_1_7 - t_1_6 - 500.000000 u_1_6_7 > -458.754100
t_2_6 - t_2_7 + 500.000000 u_2_6_7 > 15.463000
t_2_7 - t_2_6 - 500.000000 u_2_6_7 > -485.297000
t_1_7 - t_1_1 + 500.000000 u_1_7_1 - 3.000000 s_1_1 + 3.000000 s_1_6 > 18.230222
t_1_1 - t_1_7 - 500.000000 u_1_7_1 > -458.556200
t_2_7 - t_2_1 + 500.000000 u_2_7_1 - 3.000000 s_2_1 + 3.000000 s_2_6 > 13.926000
t_2_1 - t_2_7 - 500.000000 u_2_7_1 > -484.537000
t_1_2 - t_1_7 - 500.000000 s_1_7 > -455.556200
t_1_2 - t_2_7 - 500.000000 s_2_7 > -481.537000
t_2_2 - t_1_7 - 500.000000 s_1_7 > -455.556200
t_2_2 - t_2_7 - 500.000000 s_2_7 > -481.537000
t_1_3 - t_1_7 - 500.000000 s_1_7 > -455.556200
t_1_3 - t_2_7 - 500.000000 s_2_7 > -481.537000
t_2_3 - t_1_7 - 500.000000 s_1_7 > -455.556200
t_2_3 - t_2_7 - 500.000000 s_2_7 > -481.537000
t_1_4 - t_1_7 - 500.000000 s_1_7 > -455.556200
t_1_4 - t_2_7 - 500.000000 s_2_7 > -481.537000
t_2_4 - t_1_7 - 500.000000 s_1_7 > -455.556200
t_2_4 - t_2_7 - 500.000000 s_2_7 > -481.537000
t_1_5 - t_1_7 - 500.000000 s_1_7 > -455.556200
t_1_5 - t_2_7 - 500.000000 s_2_7 > -481.537000
t_2_5 - t_1_7 - 500.000000 s_1_7 > -455.556200
t_2_5 - t_2_7 - 500.000000 s_2_7 > -481.537000
t_1_7 - t_1_6 + 500.000000 u_1_7_6 > 41.245900
t_1_6 - t_1_7 - 500.000000 u_1_7_6 > -458.556200
t_2_7 - t_2_6 + 500.000000 u_2_7_6 > 14.703000
t_2_6 - t_2_7 - 500.000000 u_2_7_6 > -484.537000
t_1_8 - t_1_1 - 500.000000 s_1_1 > -478.769778
t_1_8 - t_2_1 - 500.000000 s_2_1 > -483.074000
t_2_8 - t_1_1 - 500.000000 s_1_1 > -478.769778
t_2_8 - t_2_1 - 500.000000 s_2_1 > -483.074000
t_1_8 - t_1_2 - 500.000000 s_1_2 > -477.812700
t_1_8 - t_2_2 - 500.000000 s_2_2 > -478.754000
t_2_8 - t_1_2 - 500.000000 s_1_2 > -477.812700
t_2_8 - t_2_2 - 500.000000 s_2_2 > -478.754000
t_1_8 - t_1_3 - 500.000000 s_1_3 > -462.610178
t_1_8 - t_2_3 - 500.000000 s_2_3 > -470.831000
t_2_8 - t_1_3 - 500.000000 s_1_3 > -462.610178
t_2_8 - t_2_3 - 500.000000 s_2_3 > -470.831000
t_1_8 - t_1_4 - 500.000000 s_1_4 > -476.724011
t_1_8 - t_2_4 - 500.000000 s_2_4 > -473.776000
t_2_8 - t_1_4 - 500.000000 s_1_4 > -476.724011
t_2_8 - t_2_4 - 500.000000 s_2_4 > -473.776000
t_1_8 - t_1_5 - 500.000000 s_1_5 > -476.603233
t_1_8 - t_2_5 - 500.000000 s_2_5 > -479.285000
t_2_8 - t_1_5 - 500.000000 s_1_5 > -476.603233
t_2_8 - t_2_5 - 500.000000 s_2_5 > -479.285000
Binary
s_1_1
s_2_1
s_1_2
s_2_2
s_1_3
s_2_3
s_1_4
s_2_4
s_1_5
s_2_5
s_1_6
s_2_6
s_1_7
s_2_7
s_1_8
s_2_8
u_1_1_2
u_2_1_2
u_1_1_3
u_2_1_3
u_1_1_4
u_2_1_4
u_1_1_5
u_2_1_5
u_1_1_7
u_2_1_7
u_1_2_1
u_2_2_1
u_1_2_3
u_2_2_3
u_1_2_4
u_2_2_4
u_1_2_5
u_2_2_5
u_1_2_6
u_2_2_6
u_1_3_1
u_2_3_1
u_1_3_2
u_2_3_2
u_1_3_5
u_2_3_5
u_1_3_6
u_2_3_6
u_1_4_1
u_2_4_1
u_1_4_2
u_2_4_2
u_1_4_5
u_2_4_5
u_1_4_6
u_2_4_6
u_1_5_1
u_2_5_1
u_1_5_2
u_2_5_2
u_1_5_3
u_2_5_3
u_1_5_4
u_2_5_4
u_1_6_2
u_2_6_2
u_1_6_3
u_2_6_3
u_1_6_4
u_2_6_4
u_1_6_7
u_2_6_7
u_1_7_1
u_2_7_1
u_1_7_6
u_2_7_6

End
